NAME
* Written by MOSEK version 6.0.0.137
OBJSENSE
    MIN
ROWS
 N  obj
 E  c1
 E  c2
 E  c3
 E  c4
 E  c5
 E  c6
 E  c7
 E  c8
 E  c9
 E  c10
 E  c11
 E  c12
 E  c13
 E  c14
 E  c15
 E  c16
 E  c17
 E  c18
 E  c19
 E  c20
 E  c21
 E  c22
COLUMNS
    x1        obj       71
    x1        c1        1
    x1        c2        3
    x1        c21       3
    x1        c22       5
    x2        obj       64
    x2        c2        6
    x2        c22       4
    x3        obj       73
    x3        c2        5
    x3        c22       8
    x4        obj       42
    x4        c2        1
    x4        c22       7
    x5        obj       88
    x5        c3        1
    x5        c4        6
    x5        c21       5
    x5        c22       5
    x6        obj       48
    x6        c4        3
    x6        c22       6
    x7        obj       53
    x7        c4        5
    x7        c22       7
    x8        obj       62
    x8        c4        9
    x8        c22       6
    x9        obj       97
    x9        c5        1
    x9        c6        3
    x9        c21       4
    x9        c22       6
    x10       obj       32
    x10       c6        2
    x10       c22       1
    x11       obj       44
    x11       c6        1
    x11       c22       6
    x12       obj       64
    x12       c6        4
    x12       c22       4
    x13       obj       1.08e+02
    x13       c7        1
    x13       c8        4
    x13       c21       6
    x13       c22       6
    x14       obj       54
    x14       c8        3
    x14       c22       5
    x15       obj       1.06e+02
    x15       c8        9
    x15       c22       6
    x16       obj       1.02e+02
    x16       c8        9
    x16       c22       5
    x17       obj       97
    x17       c9        1
    x17       c10       4
    x17       c21       2
    x17       c22       7
    x18       obj       85
    x18       c10       7
    x18       c22       4
    x19       obj       46
    x19       c10       4
    x19       c22       1
    x20       obj       49
    x20       c10       3
    x20       c22       3
    x21       obj       96
    x21       c11       1
    x21       c12       4
    x21       c21       5
    x21       c22       6
    x22       obj       56
    x22       c12       5
    x22       c22       4
    x23       obj       59
    x23       c12       2
    x23       c22       8
    x24       obj       48
    x24       c12       2
    x24       c22       7
    x25       obj       90
    x25       c13       1
    x25       c14       5
    x25       c21       5
    x25       c22       6
    x26       obj       48
    x26       c14       2
    x26       c22       7
    x27       obj       34
    x27       c14       4
    x27       c22       2
    x28       obj       69
    x28       c14       10
    x28       c22       3
    x29       obj       84
    x29       c15       1
    x29       c16       2
    x29       c21       4
    x29       c22       8
    x30       obj       82
    x30       c16       5
    x30       c22       10
    x31       obj       56
    x31       c16       2
    x31       c22       8
    x32       obj       1.05e+02
    x32       c16       5
    x32       c22       15
    x33       obj       1.23e+02
    x33       c17       1
    x33       c18       4
    x33       c21       7
    x33       c22       6
    x34       obj       53
    x34       c18       3
    x34       c22       4
    x35       obj       64
    x35       c18       3
    x35       c22       6
    x36       obj       52
    x36       c18       2
    x36       c22       5
    x37       obj       1.28e+02
    x37       c19       1
    x37       c20       7
    x37       c21       2
    x37       c22       6
    x38       obj       1.17e+02
    x38       c20       7
    x38       c22       8
    x39       obj       85
    x39       c20       6
    x39       c22       4
    x40       obj       73
    x40       c20       4
    x40       c22       5
RHS
    rhs       c1        13
    rhs       c2        1.15e+02
    rhs       c3        10
    rhs       c4        1.55e+02
    rhs       c5        11
    rhs       c6        75
    rhs       c7        7
    rhs       c8        1.03e+02
    rhs       c9        10
    rhs       c10       1.08e+02
    rhs       c11       10
    rhs       c12       79
    rhs       c13       11
    rhs       c14       1.23e+02
    rhs       c15       8
    rhs       c16       53
    rhs       c17       10
    rhs       c18       74
    rhs       c19       10
    rhs       c20       1.55e+02
    rhs       c21       4.22e+02
    rhs       c22       1.388e+03
RANGES
BOUNDS
 LI bound     x1        0
 LI bound     x2        0
 LI bound     x3        0
 FR bound     x4
 LI bound     x5        0
 LI bound     x6        0
 LI bound     x7        0
 FR bound     x8
 LI bound     x9        0
 LI bound     x10       0
 LI bound     x11       0
 FR bound     x12
 LI bound     x13       0
 LI bound     x14       0
 LI bound     x15       0
 FR bound     x16
 LI bound     x17       0
 LI bound     x18       0
 LI bound     x19       0
 FR bound     x20
 LI bound     x21       0
 LI bound     x22       0
 LI bound     x23       0
 FR bound     x24
 LI bound     x25       0
 LI bound     x26       0
 LI bound     x27       0
 FR bound     x28
 LI bound     x29       0
 LI bound     x30       0
 LI bound     x31       0
 FR bound     x32
 LI bound     x33       0
 LI bound     x34       0
 LI bound     x35       0
 FR bound     x36
 LI bound     x37       0
 LI bound     x38       0
 LI bound     x39       0
 FR bound     x40
CSECTION      k1        0              QUAD
    x1
    x2
    x3
    x4
CSECTION      k2        0              QUAD
    x5
    x6
    x7
    x8
CSECTION      k3        0              QUAD
    x9
    x10
    x11
    x12
CSECTION      k4        0              QUAD
    x13
    x14
    x15
    x16
CSECTION      k5        0              QUAD
    x17
    x18
    x19
    x20
CSECTION      k6        0              QUAD
    x21
    x22
    x23
    x24
CSECTION      k7        0              QUAD
    x25
    x26
    x27
    x28
CSECTION      k8        0              QUAD
    x29
    x30
    x31
    x32
CSECTION      k9        0              QUAD
    x33
    x34
    x35
    x36
CSECTION      k10       0              QUAD
    x37
    x38
    x39
    x40
ENDATA
